p cnf 39 117
a 24 15 0
e 1 2 3 4 5 6 7 8 9 10 11 12 13 14 16 17 18 19 20 21 22 23 25 26 27 28 29 30 31 32 33 34 35 36 37 38 39 0
3 -1 0
3 -2 0
1 2 -3 0
-5 4 0
-5 -4 0
6 -5 0
6 -5 0
5 -6 0
-6 -1 -7 0
6 1 -7 0
-6 1 7 0
6 -1 7 0
8 3 0
8 7 0
-3 -7 -8 0
-10 9 0
-10 -1 0
-9 1 10 0
-10 9 -11 0
10 -9 -11 0
-10 -9 11 0
10 9 11 0
12 -8 0
12 -11 0
8 11 -12 0
2 -4 -13 0
-2 4 -13 0
2 4 13 0
-2 -4 13 0
-15 -13 0
-15 14 0
13 -14 15 0
-16 -7 -17 0
16 7 -17 0
-16 7 17 0
16 -7 17 0
18 15 0
18 17 0
-15 -17 -18 0
-19 -6 0
-19 4 0
6 -4 19 0
18 19 -20 0
-18 -19 -20 0
18 -19 20 0
-18 19 20 0
-21 1 -22 0
21 -1 -22 0
-21 -1 22 0
21 1 22 0
-23 22 0
-23 10 0
-22 -10 23 0
20 -23 -24 0
-20 23 -24 0
20 23 24 0
-20 -23 24 0
-1 3 -25 0
1 -3 -25 0
-1 -3 25 0
1 3 25 0
-26 -6 -27 0
26 6 -27 0
-26 6 27 0
26 -6 27 0
-27 -6 -28 0
27 6 -28 0
-27 6 28 0
27 -6 28 0
-29 -25 0
-29 28 0
25 -28 29 0
30 -6 0
30 5 0
6 -5 -30 0
31 -2 0
31 -16 0
2 16 -31 0
30 31 -32 0
-30 -31 -32 0
30 -31 32 0
-30 31 32 0
-29 32 -33 0
29 -32 -33 0
-29 -32 33 0
29 32 33 0
34 24 0
34 33 0
-24 -33 -34 0
35 10 0
35 6 0
-10 -6 -35 0
36 7 0
36 -4 0
-7 4 -36 0
37 -35 0
37 -36 0
35 36 -37 0
34 37 -38 0
-34 -37 -38 0
34 -37 38 0
-34 37 38 0
-39 -12 0
-39 38 0
12 -38 39 0
-14 22 -6 26 36 23 29 -1 0
10 -20 11 18 -8 0
-5 -37 -27 -34 -9 -12 -39 -1 0
-13 12 35 -7 5 -25 -4 -31 0
9 -23 2 -28 -20 3 0
-37 -10 -6 -21 25 0
-22 -37 0
30 27 15 -26 -8 0
-9 -34 -7 -4 0
-28 36 -35 -11 13 0
-30 29 26 13 10 28 0
39 0
